\ LP format - for model browsing. Use MPS format to capture full model detail.
Maximize
  4 x_1 + 6 x_2 + 10 x_3 + 5 x_4 + 4 x_5 + x_6 + 5 x_7 + 2 x_8 + 8 x_9
   + 5 x_10 + 10 x_11 + 8 x_12 + 10 x_13 + x_14 + 10 x_15 + 5 x_16 + 6 x_17
   + 9 x_18 + 5 x_19 + 7 x_20 + x_21 + 2 x_22 + 3 x_23 + 2 x_24 + 10 x_25
Subject To
 C_1: 7 x_2 + x_4 + 6 x_5 + x_7 + 3 x_9 + 7 x_10 + 7 x_12 + x_15 + 10 x_17
   + 8 x_18 + 8 x_25 <= 29
 C_2: x_3 + x_6 + 7 x_8 + 3 x_9 + 8 x_10 + 8 x_16 + 9 x_18 + 6 x_19
   + 2 x_20 + 9 x_23 + 3 x_24 + 8 x_25 <= 32
 C_3: 9 x_1 + 4 x_2 + x_3 + x_8 + 4 x_9 + 6 x_12 + 3 x_14 + 2 x_20 + 7 x_21
   + x_22 + 7 x_23 + 7 x_25 <= 26
 C_4: 6 x_4 + 2 x_6 + 2 x_7 + 5 x_10 + 2 x_12 + 4 x_17 + 4 x_19 + 8 x_21
   + 9 x_23 <= 21
 C_5: 9 x_1 + 5 x_2 + 6 x_7 + 2 x_9 + 8 x_10 + 10 x_11 + 5 x_12 + 6 x_13
   + 7 x_14 + x_15 + 6 x_18 + 8 x_19 + 2 x_22 + 2 x_23 + 6 x_24 <= 41
 C_6: 2 x_2 + 6 x_5 + 7 x_6 + 6 x_7 + 4 x_9 + 8 x_12 + 9 x_17 + 4 x_21
   + 6 x_22 + 2 x_23 <= 27
 C_7: 8 x_1 + 5 x_3 + 8 x_8 + 5 x_9 + 7 x_10 + x_15 + 4 x_16 + 10 x_17
   + x_20 + 6 x_21 + 5 x_22 + 4 x_23 + 4 x_24 + 6 x_25 <= 37
 C_8: 2 x_3 + 10 x_5 + x_7 + 3 x_8 + 10 x_9 + 9 x_11 + 3 x_12 + 8 x_13
   + 5 x_14 + 5 x_16 + x_17 + 6 x_18 + 4 x_19 + x_20 + 10 x_21 + x_23
   + 4 x_25 <= 41
 C_9: 7 x_3 + 3 x_5 + 8 x_9 + 4 x_11 + 2 x_15 + 3 x_16 + 9 x_19 + 10 x_21
   + 7 x_24 <= 26
 C_10: 5 x_1 + 4 x_2 + 4 x_5 + 4 x_6 + 4 x_7 + 10 x_12 + 10 x_13 + x_14
   + 10 x_15 + 2 x_16 + 5 x_18 + 6 x_21 + 7 x_25 <= 36
Bounds
Binaries
 x_1 x_2 x_3 x_4 x_5 x_6 x_7 x_8 x_9 x_10 x_11 x_12 x_13 x_14 x_15 x_16
 x_17 x_18 x_19 x_20 x_21 x_22 x_23 x_24 x_25
End
